Welcome to the CBC MILP Solver 
Version: 2.10.12 
Build Date: Aug 20 2024 

command line - cbc cbc_model_140737413286528_5.lp sec 180 solve solu cbc_solution_140737413286528_5.sol (default strategy 1)
 CoinLpIO::readLp(): Maximization problem reformulated as minimization
Coin0009I Switching back to maximization to get correct duals etc
seconds was changed from 1e+100 to 180
Continuous objective value is -16 - 0.03 seconds
Cgl0003I 0 fixed, 22 tightened bounds, 0 strengthened rows, 0 substitutions
Cgl0003I 0 fixed, 6 tightened bounds, 0 strengthened rows, 0 substitutions
Cgl0003I 0 fixed, 4 tightened bounds, 0 strengthened rows, 0 substitutions
Cgl0003I 0 fixed, 1 tightened bounds, 0 strengthened rows, 0 substitutions
Cgl0004I processed model has 31 rows, 22 columns (22 integer (0 of which binary)) and 62 elements
Cutoff increment increased from 1e-05 to 0.9999
Cbc0012I Integer solution of -16 found by DiveCoefficient after 0 iterations and 0 nodes (0.07 seconds)
Cbc0001I Search completed - best objective -16, took 0 iterations and 0 nodes (0.07 seconds)
Cbc0035I Maximum depth 0, 0 variables fixed on reduced cost
Cuts at root node changed objective from -16 to -16
Probing was tried 0 times and created 0 cuts of which 0 were active after adding rounds of cuts (0.000 seconds)
Gomory was tried 0 times and created 0 cuts of which 0 were active after adding rounds of cuts (0.000 seconds)
Knapsack was tried 0 times and created 0 cuts of which 0 were active after adding rounds of cuts (0.000 seconds)
Clique was tried 0 times and created 0 cuts of which 0 were active after adding rounds of cuts (0.000 seconds)
MixedIntegerRounding2 was tried 0 times and created 0 cuts of which 0 were active after adding rounds of cuts (0.000 seconds)
FlowCover was tried 0 times and created 0 cuts of which 0 were active after adding rounds of cuts (0.000 seconds)
TwoMirCuts was tried 0 times and created 0 cuts of which 0 were active after adding rounds of cuts (0.000 seconds)
ZeroHalf was tried 0 times and created 0 cuts of which 0 were active after adding rounds of cuts (0.000 seconds)

Result - Optimal solution found

Objective value:                -16.00000000
Enumerated nodes:               0
Total iterations:               0
Time (CPU seconds):             0.08
Time (Wallclock seconds):       0.09

Total time (CPU seconds):       0.10   (Wallclock seconds):       0.11

